c Reduced graph for r250.1_3 generated by Cyril Grelier
p edge 231 823
e 1 4
e 1 5
e 1 8
e 1 10
e 1 21
e 1 31
e 1 33
e 1 40
e 1 49
e 1 51
e 1 80
e 1 94
e 1 114
e 2 3
e 2 6
e 2 9
e 2 11
e 2 12
e 2 13
e 2 15
e 2 17
e 2 20
e 2 34
e 2 35
e 2 36
e 2 46
e 3 6
e 3 9
e 3 11
e 3 12
e 3 13
e 3 15
e 3 17
e 3 20
e 3 34
e 3 35
e 3 36
e 3 46
e 4 5
e 4 8
e 4 10
e 4 21
e 4 31
e 4 33
e 4 40
e 4 51
e 4 80
e 4 94
e 4 114
e 4 122
e 5 8
e 5 21
e 5 31
e 5 40
e 5 49
e 5 52
e 5 80
e 5 82
e 5 94
e 5 110
e 5 187
e 6 11
e 6 13
e 6 17
e 6 19
e 6 20
e 6 34
e 6 36
e 6 57
e 6 75
e 6 95
e 6 198
e 7 55
e 7 58
e 7 60
e 7 61
e 7 99
e 7 100
e 7 135
e 7 167
e 7 188
e 7 189
e 7 197
e 7 200
e 8 21
e 8 31
e 8 40
e 8 49
e 8 52
e 8 82
e 8 94
e 8 110
e 8 187
e 9 11
e 9 12
e 9 15
e 9 17
e 9 34
e 9 35
e 9 46
e 9 50
e 9 70
e 9 125
e 10 21
e 10 31
e 10 33
e 10 40
e 10 49
e 10 51
e 10 80
e 10 94
e 10 114
e 10 122
e 11 12
e 11 13
e 11 17
e 11 20
e 11 34
e 11 36
e 11 75
e 11 95
e 12 15
e 12 17
e 12 20
e 12 34
e 12 35
e 12 46
e 12 70
e 12 125
e 13 17
e 13 19
e 13 20
e 13 34
e 13 36
e 13 75
e 13 95
e 13 128
e 14 18
e 14 42
e 14 44
e 14 50
e 14 54
e 14 56
e 14 74
e 14 86
e 14 137
e 14 150
e 14 184
e 15 20
e 15 35
e 15 45
e 15 46
e 15 71
e 15 125
e 15 154
e 16 22
e 16 23
e 16 24
e 16 26
e 16 27
e 16 38
e 16 39
e 16 53
e 16 81
e 16 84
e 16 88
e 17 20
e 17 34
e 17 50
e 17 150
e 18 42
e 18 44
e 18 50
e 18 54
e 18 56
e 18 74
e 18 86
e 18 137
e 18 150
e 18 184
e 19 32
e 19 36
e 19 57
e 19 75
e 19 95
e 19 128
e 19 149
e 19 152
e 19 160
e 20 34
e 20 35
e 20 36
e 21 31
e 21 40
e 21 49
e 21 52
e 21 80
e 21 94
e 22 23
e 22 24
e 22 26
e 22 27
e 22 38
e 22 53
e 22 81
e 22 84
e 22 88
e 22 185
e 23 24
e 23 26
e 23 27
e 23 38
e 23 39
e 23 53
e 23 81
e 23 84
e 23 88
e 24 26
e 24 27
e 24 38
e 24 39
e 24 53
e 24 81
e 24 84
e 24 88
e 25 28
e 25 30
e 25 62
e 25 64
e 25 65
e 25 90
e 25 91
e 25 101
e 25 120
e 25 143
e 25 175
e 26 27
e 26 38
e 26 53
e 26 81
e 26 84
e 26 88
e 26 185
e 27 37
e 27 38
e 27 39
e 27 53
e 27 88
e 27 151
e 28 30
e 28 62
e 28 64
e 28 90
e 28 91
e 28 101
e 28 103
e 28 139
e 28 175
e 29 83
e 29 89
e 29 113
e 29 118
e 29 132
e 29 148
e 29 157
e 29 161
e 29 180
e 29 221
e 30 62
e 30 64
e 30 90
e 30 91
e 30 101
e 30 103
e 30 139
e 30 175
e 31 33
e 31 51
e 31 94
e 31 140
e 32 37
e 32 39
e 32 57
e 32 87
e 32 128
e 32 149
e 32 151
e 32 152
e 32 160
e 33 51
e 33 94
e 33 114
e 33 122
e 33 140
e 33 214
e 34 150
e 35 45
e 35 46
e 35 71
e 35 125
e 36 57
e 36 128
e 36 152
e 37 39
e 37 66
e 37 79
e 37 87
e 37 112
e 37 116
e 37 151
e 37 194
e 38 39
e 38 81
e 38 84
e 38 151
e 39 88
e 39 151
e 39 160
e 40 49
e 40 80
e 40 143
e 41 47
e 41 76
e 41 78
e 41 93
e 41 111
e 41 127
e 41 130
e 41 159
e 41 176
e 42 44
e 42 54
e 42 56
e 42 86
e 42 106
e 42 174
e 42 184
e 43 48
e 43 59
e 43 65
e 43 67
e 43 69
e 43 97
e 43 105
e 43 120
e 43 173
e 44 54
e 44 56
e 44 86
e 44 106
e 44 137
e 44 184
e 45 46
e 45 71
e 45 125
e 45 126
e 45 154
e 45 181
e 45 190
e 46 70
e 46 125
e 47 73
e 47 76
e 47 78
e 47 93
e 47 111
e 47 130
e 47 166
e 47 176
e 48 59
e 48 65
e 48 67
e 48 69
e 48 97
e 48 119
e 48 138
e 48 173
e 49 52
e 49 80
e 49 115
e 50 70
e 50 74
e 50 137
e 50 150
e 50 163
e 51 114
e 51 122
e 51 140
e 51 208
e 52 72
e 52 82
e 52 110
e 52 115
e 52 131
e 53 88
e 53 185
e 53 216
e 54 56
e 54 86
e 54 98
e 54 106
e 54 137
e 55 58
e 55 60
e 55 61
e 55 99
e 55 100
e 55 133
e 55 135
e 55 197
e 56 86
e 56 98
e 56 106
e 56 174
e 57 75
e 57 95
e 57 128
e 57 149
e 57 152
e 58 60
e 58 61
e 58 96
e 58 99
e 58 100
e 58 133
e 58 212
e 59 67
e 59 69
e 59 97
e 59 119
e 59 138
e 59 155
e 59 173
e 60 61
e 60 96
e 60 99
e 60 100
e 60 133
e 61 99
e 61 100
e 61 133
e 61 135
e 62 64
e 62 91
e 62 101
e 62 103
e 62 139
e 63 85
e 63 96
e 63 102
e 63 104
e 63 107
e 63 121
e 63 124
e 63 134
e 64 90
e 64 91
e 64 139
e 64 153
e 65 67
e 65 69
e 65 97
e 65 120
e 65 143
e 66 79
e 66 87
e 66 112
e 66 116
e 66 144
e 66 191
e 66 194
e 67 69
e 67 97
e 67 119
e 67 155
e 68 105
e 68 108
e 68 120
e 68 123
e 68 127
e 68 146
e 68 158
e 68 186
e 69 72
e 69 97
e 69 115
e 70 74
e 70 92
e 70 125
e 70 163
e 71 154
e 71 190
e 71 203
e 71 213
e 71 215
e 72 82
e 72 97
e 72 115
e 72 131
e 72 155
e 72 211
e 73 76
e 73 78
e 73 93
e 73 129
e 73 130
e 73 166
e 73 193
e 74 92
e 74 117
e 74 137
e 74 163
e 75 95
e 75 141
e 75 198
e 76 78
e 76 93
e 76 111
e 76 130
e 76 166
e 77 108
e 77 109
e 77 142
e 77 159
e 77 165
e 77 177
e 77 210
e 77 220
e 78 93
e 78 111
e 78 130
e 78 166
e 79 87
e 79 112
e 79 116
e 79 144
e 79 191
e 79 194
e 80 143
e 81 84
e 81 103
e 82 110
e 82 115
e 82 131
e 82 211
e 83 89
e 83 118
e 83 132
e 83 148
e 83 157
e 83 161
e 83 180
e 84 103
e 85 96
e 85 102
e 85 104
e 85 107
e 85 121
e 85 124
e 85 134
e 86 106
e 86 174
e 87 112
e 87 116
e 87 144
e 87 149
e 89 113
e 89 118
e 89 132
e 89 148
e 89 157
e 89 161
e 90 91
e 90 120
e 90 146
e 90 153
e 91 139
e 91 153
e 92 117
e 92 163
e 92 164
e 92 182
e 92 204
e 92 206
e 93 129
e 93 130
e 93 166
e 95 141
e 95 198
e 96 102
e 96 104
e 96 133
e 96 212
e 97 115
e 98 141
e 98 147
e 98 156
e 98 162
e 98 178
e 98 196
e 99 100
e 99 200
e 100 133
e 101 103
e 101 143
e 101 175
e 102 104
e 102 107
e 102 121
e 102 134
e 103 139
e 104 107
e 104 121
e 104 134
e 105 123
e 105 146
e 105 158
e 105 173
e 105 186
e 106 174
e 106 178
e 107 121
e 107 124
e 107 134
e 108 123
e 108 127
e 108 142
e 108 159
e 108 165
e 109 142
e 109 165
e 109 177
e 109 181
e 109 203
e 109 210
e 110 131
e 110 145
e 110 187
e 111 127
e 111 158
e 111 176
e 112 116
e 112 144
e 112 194
e 113 132
e 113 136
e 113 168
e 113 195
e 113 209
e 114 122
e 114 208
e 115 131
e 116 144
e 116 149
e 117 163
e 117 164
e 117 182
e 117 204
e 117 206
e 118 148
e 118 157
e 118 161
e 118 180
e 119 138
e 119 155
e 119 218
e 119 223
e 120 146
e 120 186
e 121 124
e 121 134
e 122 140
e 122 208
e 123 127
e 123 146
e 123 158
e 123 186
e 124 134
e 124 205
e 124 225
e 126 136
e 126 154
e 126 168
e 126 181
e 126 190
e 126 195
e 127 158
e 127 176
e 128 152
e 128 160
e 129 183
e 129 192
e 129 193
e 129 201
e 129 202
e 130 159
e 131 155
e 131 211
e 132 136
e 132 179
e 132 217
e 133 212
e 135 167
e 135 188
e 135 189
e 135 197
e 136 168
e 136 179
e 136 195
e 136 209
e 137 150
e 138 173
e 138 218
e 138 223
e 140 205
e 140 214
e 141 162
e 141 196
e 141 198
e 142 153
e 142 165
e 142 177
e 143 175
e 144 191
e 145 169
e 145 170
e 145 171
e 145 172
e 145 187
e 146 186
e 147 156
e 147 162
e 147 196
e 147 207
e 147 224
e 148 157
e 148 161
e 149 230
e 151 160
e 152 160
e 153 165
e 153 177
e 154 181
e 154 190
e 155 211
e 156 162
e 156 178
e 156 207
e 156 224
e 157 161
e 158 176
e 159 210
e 159 220
e 162 178
e 162 196
e 163 164
e 164 182
e 164 204
e 164 206
e 165 177
e 166 231
e 167 188
e 167 189
e 167 197
e 167 226
e 168 180
e 168 195
e 168 221
e 169 170
e 169 171
e 169 172
e 169 187
e 169 199
e 170 171
e 170 172
e 170 199
e 171 172
e 171 199
e 172 199
e 174 178
e 179 209
e 179 217
e 179 222
e 180 221
e 181 190
e 182 184
e 182 206
e 183 192
e 183 193
e 183 201
e 183 202
e 185 216
e 185 219
e 188 189
e 188 200
e 189 200
e 191 226
e 191 228
e 192 193
e 192 201
e 192 202
e 193 201
e 194 229
e 195 209
e 196 198
e 197 229
e 202 231
e 203 213
e 203 215
e 204 222
e 205 214
e 205 225
e 207 224
e 207 227
e 208 219
e 210 220
e 212 216
e 213 215
e 217 222
e 218 223
e 219 225
e 226 228
e 227 230
